
<<< setup


<<< generate

Version identifier: 22.1.1.0 | 2022-11-28 | 9160aff4d
CPXPARAM_TimeLimit                               1800
Tried aggregator 1 time.
MIP Presolve eliminated 20300 rows and 39800 columns.
Reduced MIP has 79601 rows, 40400 columns, and 239000 nonzeros.
Reduced MIP has 40000 binaries, 400 generals, 0 SOSs, and 0 indicators.
Presolve time = 0.05 sec. (104.36 ticks)
Probing time = 0.02 sec. (15.10 ticks)
Tried aggregator 1 time.
Detecting symmetries...
MIP Presolve eliminated 1 rows and 200 columns.
Reduced MIP has 79600 rows, 40200 columns, and 238800 nonzeros.
Reduced MIP has 39800 binaries, 400 generals, 0 SOSs, and 0 indicators.
Presolve time = 0.06 sec. (105.23 ticks)
Probing time = 0.02 sec. (15.06 ticks)
MIP emphasis: balance optimality and feasibility.
MIP search method: dynamic search.
Parallel mode: deterministic, using up to 8 threads.
Root relaxation solution time = 0.09 sec. (185.41 ticks)

        Nodes                                         Cuts/
   Node  Left     Objective  IInf  Best Integer    Best Bound    ItCnt     Gap

      0     0     9906.0000 31968                   9906.0000     4975         
      0     0     9906.0000 31773                 Cuts: 10000     5913         
      0     0     9906.0000 31944               MIRcuts: 10000     7009         
      0     0     9906.0000  2692                    Cuts: 87     7267         
      0     0     9906.0000  2791                   Cuts: 225     7417         
*     0+    0                         9906.0000     9906.0000             0.00%
      0     0        cutoff           9906.0000     9906.0000     7417    0.00%
Elapsed time = 8.48 sec. (27837.16 ticks, tree = 0.01 MB, solutions = 1)

Implied bound cuts applied:  2
Mixed integer rounding cuts applied:  25

Root node processing (before b&c):
  Real time             =    8.49 sec. (27840.79 ticks)
Parallel b&c, 8 threads:
  Real time             =    0.00 sec. (0.00 ticks)
  Sync time (average)   =    0.00 sec.
  Wait time (average)   =    0.00 sec.
                          ------------
Total (root+branch&cut) =    8.49 sec. (27840.79 ticks)

<<< solve


OBJECTIVE: 9906

<<< post process


<<< done

